c WARNING: for repeatability, setting FPU to use double precision
d VARIABLES            216460       
d CONSTRAINTS          946733       
c ============================[ Problem Statistics ]=============================
c |                                                                             |
c |  Number of variables:        216460                                         |
c |  Number of clauses:          946733                                         |
c |  Parse time:                   0.15 s                                       |
c |                                                                             |
c ============================[ Search Statistics ]==============================
c | Conflicts |          ORIGINAL         |          LEARNT          | Progress |
c |           |    Vars  Clauses Literals |    Limit  Clauses Lit/Cl |          |
c ===============================================================================
c |       100 |  180209   854291  2070141 |   313240      100      9 | 16.747 % |
c |       250 |  180209   854291  2070141 |   344564      250     16 | 16.747 % |
c |       475 |  180209   854291  2070141 |   379020      475     25 | 16.747 % |
c |       812 |  180209   854291  2070141 |   416922      812     36 | 16.747 % |
c |      1318 |  180209   854291  2070141 |   458614     1318     52 | 16.747 % |
c |      2077 |  180209   854291  2070141 |   504476     2077     66 | 16.747 % |
c |      3216 |  180209   854291  2070141 |   554923     3216     84 | 16.747 % |
c |      4924 |  180209   854291  2070141 |   610416     4924     89 | 16.747 % |
c |      7486 |  180209   854291  2070141 |   671457     7486    102 | 16.747 % |
c |     11330 |  180209   854291  2070141 |   738603    11330     97 | 16.747 % |
c |     17096 |  180209   854291  2070141 |   812463    17096    121 | 16.747 % |
c |     25745 |  180209   854291  2070141 |   893710    25745    138 | 16.747 % |
c |     38719 |  180209   854291  2070141 |   983081    38719    151 | 16.747 % |
c |     58180 |  180209   854291  2070141 |  1081389    58180    158 | 16.747 % |
c |     87372 |  180209   854291  2070141 |  1189528    87372    158 | 16.747 % |
c |    131161 |  180209   854291  2070141 |  1308481   131161    192 | 16.747 % |
c |    196845 |  180209   854291  2070141 |  1439329   196845    194 | 16.747 % |
c |    295371 |  180209   854291  2070141 |  1583262   295371    193 | 16.747 % |
c |    443160 |  180209   854291  2070141 |  1741588   443160    188 | 16.747 % |
c |    664843 |  180209   854291  2070141 |  1915747   664843    187 | 16.747 % |
c |    997368 |  180209   854291  2070141 |  2107322   997368    186 | 16.747 % |
c ===============================================================================
c restarts              : 2047
c conflicts             : 1030535        (1113 /sec)
c decisions             : 3965026        (0.00 % random) (4284 /sec)
c propagations          : 2870548672     (3101157 /sec)
c conflict literals     : 192037138      (25.03 % deleted)
d RESTARTS             2047
d FAILURES             1030535      
d NODES                3965026      
d BACKTRACKS           3965026      
d PROPAGATIONS         2870548672   
d NOGOODSIZE           186.35 
d MEMORY               1018.00 
d TIME                 925.638 

s SATISFIABLE
